500
200 200
1 140 785
2 139 130
3 139 570
4 139 574
5 138 221
6 138 833
7 138 483
8 138 185
9 137 256
10 137 936
11 137 62
12 137 183
13 136 140
14 136 836
15 136 912
16 136 131
17 136 690
18 136 663
19 135 28
20 135 294
21 135 44
22 134 514
23 134 729
24 133 340
25 133 514
26 133 272
27 132 0
28 132 80
29 132 670
30 132 139
31 132 138
32 132 657
33 132 137
34 131 978
35 131 790
36 131 214
37 130 492
38 130 860
39 129 543
40 129 58
41 129 18
42 129 828
43 128 613
44 128 707
45 128 424
46 128 815
47 127 810
48 127 122
49 127 986
50 127 859
51 126 590
52 126 781
53 126 964
54 126 647
55 126 362
56 125 529
57 125 148
58 124 269
59 124 882
60 124 111
61 123 765
62 123 133
63 123 842
64 123 905
65 122 288
66 122 171
67 122 815
68 122 445
69 122 375
70 121 363
71 121 634
72 121 48
73 120 358
74 120 740
75 120 448
76 120 613
77 120 644
78 120 452
79 120 719
80 119 354
81 119 41
82 119 957
83 119 541
84 119 866
85 119 311
86 118 575
87 118 137
88 118 612
89 117 173
90 117 12
91 117 731
92 117 483
93 117 856
94 116 827
95 116 973
96 115 226
97 115 168
98 115 62
99 115 498
100 115 351
101 115 632
102 115 435
103 114 479
104 114 984
105 114 86
106 114 278
107 114 492
108 113 690
109 113 399
110 113 930
111 113 692
112 113 38
113 112 330
114 112 404
115 112 463
116 112 688
117 112 30
118 111 249
119 111 475
120 111 184
121 111 744
122 110 702
123 110 683
124 110 659
125 110 18
126 110 431
127 110 242
128 110 86
129 109 837
130 109 78
131 109 693
132 108 481
133 108 244
134 108 840
135 108 639
136 108 148
137 107 800
138 107 15
139 107 86
140 106 960
141 106 527
142 106 597
143 106 271
144 106 906
145 106 406
146 105 135
147 105 54
148 105 18
149 105 56
150 105 244
151 105 851
152 105 284
153 104 221
154 104 970
155 104 207
156 103 226
157 103 437
158 103 85
159 103 243
160 102 583
161 102 824
162 102 286
163 102 992
164 102 391
165 102 625
166 102 178
167 101 305
168 101 367
169 101 574
170 100 697
171 100 432
172 100 895
173 99 455
174 99 783
175 99 421
176 99 293
177 99 234
178 99 905
179 98 359
180 98 219
181 98 929
182 98 791
183 98 366
184 97 945
185 97 483
186 96 105
187 96 679
188 96 903
189 96 786
190 96 964
191 96 691
192 96 170
193 96 995
194 96 760
195 95 609
196 95 659
197 94 323
198 94 114
199 94 312
200 94 123
201 94 36
202 93 297
203 93 942
204 93 910
205 93 598
206 93 200
207 93 491
208 92 430
209 92 857
210 91 887
211 90 490
212 90 519
213 90 67
214 90 300
215 90 322
216 89 113
217 89 291
218 89 741
219 88 781
220 88 274
221 88 427
222 87 965
223 87 349
224 87 766
225 87 893
226 86 1
227 86 96
228 86 713
229 86 24
230 86 958
231 86 260
232 86 58
233 86 573
234 85 482
235 85 600
236 85 541
237 85 460
238 85 578
239 85 368
240 85 845
241 84 257
242 84 91
243 84 850
244 83 833
245 83 492
246 83 537
247 83 116
248 82 546
249 82 721
250 82 540
251 81 638
252 81 786
253 81 468
254 81 765
255 81 325
256 81 684
257 80 597
258 80 997
259 80 285
260 80 527
261 79 925
262 79 573
263 79 741
264 79 217
265 79 624
266 79 860
267 79 834
268 78 772
269 78 44
270 78 822
271 78 930
272 77 306
273 77 128
274 77 238
275 76 923
276 76 660
277 76 958
278 76 415
279 76 272
280 75 64
281 74 636
282 74 659
283 74 418
284 73 525
285 72 132
286 72 612
287 72 127
288 72 1000
289 71 380
290 71 288
291 71 445
292 70 103
293 70 113
294 69 387
295 69 748
296 69 23
297 69 76
298 69 469
299 68 614
300 68 383
301 68 802
302 68 77
303 68 740
304 68 876
305 68 225
306 67 717
307 67 412
308 67 749
309 67 209
310 67 997
311 66 295
312 66 782
313 66 277
314 65 893
315 64 862
316 64 57
317 63 676
318 63 475
319 63 704
320 62 397
321 62 630
322 62 284
323 62 246
324 62 368
325 62 931
326 61 258
327 61 943
328 61 784
329 61 865
330 61 188
331 61 883
332 60 758
333 60 151
334 60 877
335 60 906
336 60 333
337 60 534
338 60 952
339 60 126
340 59 261
341 59 69
342 59 902
343 59 465
344 58 496
345 58 635
346 58 384
347 58 736
348 58 413
349 58 151
350 58 741
351 58 451
352 58 508
353 57 801
354 57 568
355 56 658
356 56 435
357 56 982
358 56 601
359 55 604
360 55 139
361 55 80
362 55 926
363 55 964
364 55 49
365 55 620
366 54 651
367 54 427
368 54 256
369 54 68
370 53 466
371 53 253
372 53 84
373 53 956
374 53 15
375 53 849
376 53 466
377 52 122
378 52 473
379 52 974
380 52 354
381 51 299
382 51 958
383 50 444
384 50 376
385 50 234
386 50 961
387 50 893
388 49 965
389 49 767
390 48 906
391 48 388
392 48 369
393 48 274
394 47 42
395 47 266
396 47 826
397 47 966
398 46 604
399 46 957
400 46 143
401 46 796
402 46 859
403 46 854
404 46 638
405 46 370
406 46 388
407 45 280
408 45 525
409 45 865
410 45 319
411 44 240
412 43 739
413 43 46
414 43 990
415 42 854
416 42 835
417 42 857
418 41 766
419 41 769
420 41 730
421 41 12
422 41 179
423 41 480
424 39 909
425 39 746
426 39 429
427 39 926
428 38 173
429 38 213
430 38 431
431 37 3
432 37 214
433 37 791
434 37 367
435 37 906
436 37 588
437 37 118
438 36 51
439 36 812
440 36 11
441 35 877
442 35 545
443 35 501
444 35 566
445 35 176
446 35 186
447 34 360
448 34 946
449 34 867
450 33 766
451 33 774
452 33 739
453 32 950
454 32 672
455 32 606
456 31 449
457 31 747
458 31 947
459 30 960
460 30 127
461 29 936
462 29 550
463 28 104
464 28 653
465 28 580
466 27 22
467 27 758
468 27 465
469 27 905
470 26 551
471 26 778
472 26 777
473 26 470
474 25 602
475 25 812
476 24 990
477 24 865
478 24 907
479 23 389
480 23 817
481 23 432
482 23 615
483 23 954
484 22 293
485 22 816
486 22 389
487 22 201
488 21 25
489 21 914
490 21 532
491 21 919
492 21 430
493 21 674
494 21 895
495 20 22
496 20 326
497 20 655
498 20 691
499 20 179
500 20 997
